k = 66;
b = 33;
AtomicConstraints =  [|
1, 2|
	1, 3|
	1, 57|
	1, 56|
	1, 59|
	1, 60|
	1, 65|
	2, 3|
	2, 57|
	2, 56|
	2, 59|
	2, 60|
	2, 65|
	3, 57|
	3, 56|
	3, 59|
	3, 60|
	3, 65|
	4, 3|
	4, 57|
	4, 56|
	4, 59|
	4, 60|
	4, 65|
	5, 14|
	5, 15|
	5, 16|
	5, 57|
	5, 56|
	5, 59|
	5, 60|
	5, 65|
	6, 14|
	6, 15|
	6, 16|
	6, 57|
	6, 56|
	6, 59|
	6, 60|
	6, 65|
	7, 1|
	7, 2|
	7, 3|
	7, 57|
	7, 56|
	7, 59|
	7, 62|
	7, 64|
	7, 61|
	7, 60|
	7, 65|
	8, 1|
	8, 2|
	8, 3|
	8, 57|
	8, 56|
	8, 59|
	8, 62|
	8, 64|
	8, 61|
	8, 60|
	8, 65|
	9, 1|
	9, 2|
	9, 3|
	9, 57|
	9, 56|
	9, 59|
	9, 62|
	9, 64|
	9, 61|
	9, 60|
	9, 65|
	10, 1|
	10, 2|
	10, 3|
	10, 4|
	10, 57|
	10, 56|
	10, 59|
	10, 62|
	10, 64|
	10, 61|
	10, 60|
	10, 65|
	11, 1|
	11, 2|
	11, 3|
	11, 4|
	11, 5|
	11, 6|
	11, 14|
	11, 15|
	11, 16|
	11, 57|
	11, 56|
	11, 59|
	11, 60|
	11, 65|
	12, 1|
	12, 2|
	12, 3|
	12, 4|
	12, 5|
	12, 6|
	12, 14|
	12, 15|
	12, 16|
	12, 57|
	12, 56|
	12, 59|
	12, 60|
	12, 65|
	13, 1|
	13, 2|
	13, 3|
	13, 4|
	13, 5|
	13, 6|
	13, 14|
	13, 15|
	13, 16|
	13, 57|
	13, 56|
	13, 59|
	13, 60|
	13, 65|
	14, 60|
	14, 65|
	15, 14|
	15, 59|
	15, 60|
	15, 65|
	16, 14|
	16, 15|
	16, 56|
	16, 59|
	16, 60|
	16, 65|
	17, 1|
	17, 2|
	17, 3|
	17, 4|
	17, 5|
	17, 6|
	17, 14|
	17, 15|
	17, 16|
	17, 57|
	17, 56|
	17, 59|
	17, 62|
	17, 60|
	17, 65|
	18, 1|
	18, 2|
	18, 3|
	18, 4|
	18, 5|
	18, 6|
	18, 13|
	18, 14|
	18, 15|
	18, 16|
	18, 57|
	18, 56|
	18, 59|
	18, 62|
	18, 60|
	18, 65|
	19, 1|
	19, 2|
	19, 3|
	19, 4|
	19, 5|
	19, 6|
	19, 12|
	19, 13|
	19, 14|
	19, 15|
	19, 16|
	19, 57|
	19, 56|
	19, 59|
	19, 60|
	19, 65|
	20, 39|
	20, 23|
	20, 24|
	20, 36|
	20, 43|
	20, 38|
	20, 25|
	20, 26|
	20, 27|
	20, 47|
	20, 50|
	20, 44|
	20, 51|
	20, 28|
	20, 30|
	20, 35|
	20, 31|
	20, 33|
	21, 39|
	21, 23|
	21, 24|
	21, 48|
	21, 36|
	21, 43|
	21, 38|
	21, 25|
	21, 26|
	21, 27|
	21, 47|
	21, 49|
	21, 50|
	21, 44|
	21, 51|
	21, 28|
	21, 34|
	21, 30|
	21, 35|
	21, 31|
	21, 33|
	22, 39|
	22, 23|
	22, 24|
	22, 48|
	22, 36|
	22, 43|
	22, 38|
	22, 25|
	22, 26|
	22, 27|
	22, 47|
	22, 49|
	22, 44|
	22, 51|
	22, 28|
	22, 34|
	22, 29|
	22, 35|
	22, 31|
	22, 32|
	22, 42|
	22, 33|
	41, 39|
	41, 23|
	41, 24|
	41, 48|
	41, 45|
	41, 36|
	41, 43|
	41, 38|
	41, 25|
	41, 26|
	41, 27|
	41, 47|
	41, 49|
	41, 46|
	41, 44|
	41, 51|
	41, 28|
	41, 34|
	41, 29|
	41, 35|
	41, 32|
	41, 42|
	41, 40|
	41, 33|
	36, 39|
	36, 35|
	36, 33|
	43, 39|
	43, 35|
	43, 33|
	38, 39|
	38, 23|
	38, 24|
	25, 23|
	25, 24|
	26, 23|
	26, 24|
	27, 24|
	47, 48|
	49, 48|
	46, 45|
	37, 35|
	50, 39|
	50, 36|
	50, 43|
	50, 35|
	50, 33|
	44, 39|
	44, 23|
	44, 24|
	44, 43|
	44, 38|
	44, 25|
	44, 26|
	44, 27|
	44, 35|
	44, 33|
	51, 39|
	51, 23|
	51, 24|
	51, 38|
	51, 25|
	51, 26|
	51, 27|
	51, 47|
	51, 33|
	28, 39|
	28, 23|
	28, 24|
	28, 48|
	28, 38|
	28, 25|
	28, 26|
	28, 27|
	28, 47|
	28, 49|
	34, 23|
	34, 24|
	34, 48|
	34, 25|
	34, 26|
	34, 27|
	34, 47|
	34, 49|
	29, 23|
	29, 24|
	29, 48|
	29, 26|
	29, 27|
	29, 47|
	29, 49|
	30, 39|
	30, 23|
	30, 24|
	30, 36|
	30, 43|
	30, 38|
	30, 25|
	30, 26|
	30, 27|
	30, 47|
	30, 44|
	30, 51|
	30, 28|
	30, 35|
	30, 33|
	31, 39|
	31, 23|
	31, 24|
	31, 48|
	31, 36|
	31, 43|
	31, 38|
	31, 25|
	31, 26|
	31, 27|
	31, 47|
	31, 49|
	31, 44|
	31, 51|
	31, 28|
	31, 34|
	31, 35|
	31, 33|
	32, 39|
	32, 23|
	32, 24|
	32, 48|
	32, 43|
	32, 38|
	32, 25|
	32, 26|
	32, 27|
	32, 47|
	32, 49|
	32, 44|
	32, 51|
	32, 28|
	32, 34|
	32, 29|
	32, 35|
	32, 33|
	42, 39|
	42, 23|
	42, 24|
	42, 48|
	42, 45|
	42, 38|
	42, 25|
	42, 26|
	42, 27|
	42, 47|
	42, 49|
	42, 46|
	42, 51|
	42, 28|
	42, 34|
	42, 29|
	42, 35|
	42, 33|
	40, 39|
	40, 23|
	40, 24|
	40, 48|
	40, 45|
	40, 38|
	40, 25|
	40, 26|
	40, 27|
	40, 47|
	40, 49|
	40, 46|
	40, 28|
	40, 34|
	40, 29|
	40, 33|
	52, 39|
	52, 23|
	52, 24|
	52, 36|
	52, 43|
	52, 38|
	52, 25|
	52, 26|
	52, 27|
	52, 37|
	52, 50|
	52, 44|
	52, 35|
	52, 33|
	57, 56|
	57, 59|
	57, 60|
	57, 65|
	56, 59|
	56, 60|
	56, 65|
	59, 60|
	59, 65|
	55, 39|
	55, 20|
	55, 21|
	55, 22|
	55, 41|
	55, 23|
	55, 24|
	55, 48|
	55, 45|
	55, 36|
	55, 43|
	55, 38|
	55, 25|
	55, 26|
	55, 27|
	55, 47|
	55, 49|
	55, 46|
	55, 37|
	55, 50|
	55, 44|
	55, 51|
	55, 28|
	55, 34|
	55, 29|
	55, 30|
	55, 35|
	55, 31|
	55, 32|
	55, 42|
	55, 40|
	55, 33|
	55, 52|
	55, 60|
	55, 65|
	53, 39|
	53, 20|
	53, 21|
	53, 22|
	53, 41|
	53, 23|
	53, 24|
	53, 48|
	53, 45|
	53, 36|
	53, 43|
	53, 38|
	53, 25|
	53, 26|
	53, 27|
	53, 47|
	53, 49|
	53, 46|
	53, 37|
	53, 50|
	53, 44|
	53, 51|
	53, 28|
	53, 34|
	53, 29|
	53, 30|
	53, 35|
	53, 31|
	53, 32|
	53, 42|
	53, 40|
	53, 33|
	53, 52|
	53, 60|
	53, 65|
	54, 39|
	54, 20|
	54, 21|
	54, 22|
	54, 41|
	54, 23|
	54, 24|
	54, 48|
	54, 45|
	54, 36|
	54, 43|
	54, 38|
	54, 25|
	54, 26|
	54, 27|
	54, 47|
	54, 49|
	54, 46|
	54, 37|
	54, 50|
	54, 44|
	54, 51|
	54, 28|
	54, 34|
	54, 29|
	54, 30|
	54, 35|
	54, 31|
	54, 32|
	54, 42|
	54, 40|
	54, 33|
	54, 52|
	54, 60|
	54, 65|
	64, 62|
	61, 62|
	61, 64|
	58, 60|
	58, 65|
	66, 14|
	66, 15|
	66, 16|
	66, 39|
	66, 20|
	66, 21|
	66, 22|
	66, 41|
	66, 23|
	66, 24|
	66, 48|
	66, 45|
	66, 36|
	66, 43|
	66, 38|
	66, 25|
	66, 26|
	66, 27|
	66, 47|
	66, 49|
	66, 46|
	66, 37|
	66, 50|
	66, 44|
	66, 51|
	66, 28|
	66, 34|
	66, 29|
	66, 30|
	66, 35|
	66, 31|
	66, 32|
	66, 42|
	66, 40|
	66, 33|
	66, 52|
	66, 57|
	66, 56|
	66, 59|
	66, 55|
	66, 53|
	66, 54|
	66, 58|
	66, 60|
	66, 65|
	63, 14|
	63, 15|
	63, 16|
	63, 39|
	63, 20|
	63, 21|
	63, 22|
	63, 41|
	63, 23|
	63, 24|
	63, 48|
	63, 45|
	63, 36|
	63, 43|
	63, 38|
	63, 25|
	63, 26|
	63, 27|
	63, 47|
	63, 49|
	63, 46|
	63, 37|
	63, 50|
	63, 44|
	63, 51|
	63, 28|
	63, 34|
	63, 29|
	63, 30|
	63, 35|
	63, 31|
	63, 32|
	63, 42|
	63, 40|
	63, 33|
	63, 52|
	63, 57|
	63, 56|
	63, 59|
	63, 55|
	63, 53|
	63, 54|
	63, 58|
	63, 60|
	63, 65|];
DisjunctiveConstraints =  [|5, 6, 5, 4|
	5, 14, 47, 5|
	5, 15, 48, 5|
	6, 48, 6, 15|
	6, 47, 6, 14|
	6, 49, 6, 16|
	8, 9, 8, 7|
	9, 10, 9, 8|
	10, 37, 10, 4|
	12, 11, 12, 13|
	17, 13, 46, 17|
	18, 12, 45, 18|
	18, 19, 18, 17|
	18, 46, 18, 13|
	19, 11, 44, 19|
	19, 45, 19, 12|
	20, 21, 20, 52|
	20, 28, 61, 20|
	21, 22, 21, 20|
	21, 48, 15, 21|
	22, 41, 22, 21|
	41, 45, 12, 41|
	41, 46, 13, 41|
	39, 23, 39, 33|
	23, 24, 23, 39|
	43, 38, 43, 36|
	38, 25, 38, 43|
	25, 26, 25, 38|
	26, 27, 26, 25|
	27, 47, 27, 26|
	47, 49, 47, 27|
	51, 28, 51, 44|
	28, 34, 28, 51|
	34, 29, 34, 28|
	31, 32, 31, 30|
	32, 42, 32, 31|
	42, 45, 12, 42|
	42, 46, 13, 42|
	42, 40, 42, 32|
	40, 45, 40, 12|
	52, 27, 60, 52|
	52, 44, 11, 52|
	33, 39, 33, 35|
	57, 60, 57, 27|
	56, 60, 56, 27|
	59, 60, 59, 27|
	53, 45, 53, 12|
	53, 46, 53, 13|
	53, 40, 53, 7|
	53, 55, 53, 54|
	54, 22, 54, 55|
	54, 41, 54, 8|
	54, 42, 54, 9|
	54, 40, 7, 54|
	66, 22, 66, 55|];
SoftAtomicConstraints =  [|
5, 4|
6, 5|
8, 7|
9, 8|
10, 9|
11, 12|
12, 13|
18, 17|
19, 18|
21, 20|
22, 21|
41, 22|
24, 23|
48, 24|
26, 25|
27, 26|
47, 27|
34, 28|
31, 30|
32, 31|
42, 32|
39, 33|
29, 34|
33, 35|
43, 36|
50, 37|
25, 38|
23, 39|
40, 42|
38, 43|
51, 44|
49, 47|
45, 48|
46, 49|
44, 50|
28, 51|
20, 52|
55, 53|
53, 54|
60, 65|
63, 66|];
DirectSuccessors =  [];
